solutions/Insertion/cheapest/E-n76-k8.txt
[[[75], [75, 68], [75, 6, 68], [75, 6, 2, 68], [75, 6, 2, 30, 68], [75, 6, 2, 74, 30, 68], [75, 6, 2, 74, 30, 4, 68], [75, 6, 2, 74, 30, 45, 4, 68], [75, 6, 2, 74, 30, 29, 45, 4, 68], [75, 6, 2, 74, 30, 29, 45, 4, 68]], [[67], [67, 26], [67, 17, 26], [67, 51, 17, 26], [67, 51, 40, 17, 26], [67, 51, 40, 12, 17, 26], [67, 51, 40, 12, 17, 26, 34], [67, 51, 40, 12, 17, 26, 34, 46], [67, 51, 40, 12, 17, 26, 34, 46]], [[7], [7, 8], [7, 8, 35], [7, 8, 35, 53], [7, 8, 35, 53, 14], [7, 8, 35, 53, 14, 19], [7, 8, 35, 53, 14, 19, 52], [7, 8, 35, 53, 14, 19, 52, 27], [7, 8, 35, 53, 14, 19, 52, 13, 27], [7, 8, 35, 53, 14, 19, 54, 52, 13, 27], [7, 8, 35, 53, 14, 19, 54, 52, 13, 27]], [[33], [33, 73], [33, 73, 1], [33, 73, 1, 63], [33, 73, 1, 63, 16], [33, 73, 1, 63, 16, 3], [33, 73, 1, 63, 16, 3, 44], [33, 73, 1, 63, 16, 3, 32, 44], [33, 73, 1, 63, 16, 3, 50, 32, 44], [33, 73, 1, 63, 16, 3, 50, 32, 44]], [[58], [58, 72], [58, 72, 10], [58, 72, 10, 38], [58, 72, 10, 38, 65], [58, 72, 10, 38, 65, 11], [58, 72, 10, 38, 65, 11, 66], [58, 72, 10, 38, 65, 11, 66, 39], [58, 72, 10, 38, 65, 11, 66, 39]], [[48], [48, 5], [48, 5, 47], [48, 5, 47, 21], [48, 5, 47, 21, 36], [48, 5, 47, 21, 36, 37], [48, 5, 47, 21, 36, 37, 15], [48, 5, 47, 21, 36, 37, 15, 57], [48, 5, 47, 21, 36, 37, 15, 57, 20], [48, 5, 47, 21, 36, 37, 15, 57, 20, 70], [48, 5, 47, 21, 36, 37, 15, 57, 20, 70, 71], [48, 5, 47, 21, 36, 37, 15, 57, 20, 70, 71]], [[62], [62, 28], [62, 28, 22], [62, 28, 22, 43], [62, 28, 22, 43, 42], [62, 28, 22, 43, 42, 41], [62, 28, 22, 43, 42, 41, 23], [62, 28, 22, 43, 42, 41, 56, 23], [62, 28, 22, 43, 42, 41, 56, 23, 49], [62, 28, 22, 43, 42, 41, 56, 23, 24, 49], [62, 28, 22, 43, 42, 41, 56, 23, 24, 18, 49], [62, 28, 22, 43, 42, 41, 56, 23, 24, 18, 49]], [[9], [9, 25], [9, 25, 55], [9, 25, 55, 31], [9, 25, 55, 31, 59], [9, 25, 55, 31, 59, 61], [9, 25, 55, 31, 59, 69, 61], [9, 25, 55, 31, 59, 69, 60, 61], [9, 25, 55, 31, 59, 69, 60, 64, 61], [9, 25, 55, 31, 59, 69, 60, 64, 61]]]