solutions/Insertion/cheapest/E-n76-k8.sol
Route #1: 75 6 2 74 30 29 45 4 68
Route #2: 67 51 40 12 17 26 34 46
Route #3: 7 8 35 53 14 19 54 52 13 27
Route #4: 33 73 1 63 16 3 50 32 44
Route #5: 58 72 10 38 65 11 66 39
Route #6: 48 5 47 21 36 37 15 57 20 70 71
Route #7: 62 28 22 43 42 41 56 23 24 18 49
Route #8: 9 25 55 31 59 69 60 64 61
cost: 1031
